(set-option :model false)
(set-option :smt.random_seed 5)
(declare-fun a () real)
(declare-fun b () real)
(declare-fun x2 () real)
(declare-fun x3 () real)
(declare-fun c () real)
(assert (or (= (+ (* 24 x2) (* (- 12) c) (* (- 11) x2) (* 21 b)) (- 25)) (not (< (+ (* (- 42) x2) (* 19 x2)  (* 37 a)) 38))))
(assert (< (+ (div (- 40) x2) (* 1 x3) (* (- 30) c) (* (- 45) x2) (* 39 x3)) (- 6))) (assert (or (not (> (+ (* 26 a) (* (- 42) b) (* (- 40) x2) (* (- 33) a) x2  (* (- 5) c) (* 46 c) (* 13 b) (* (- 94) c) (* (- 22) c) (* (- 6) b)) (- 16))) (not (<= (+ (* 48 x3) (* 27 a) (* (- 23) x2) (* (- 35) x3)) 37)) (not (<= (+ (* 25 a) (* 16 b) (* 47 x2) (* (- 22) a)) 10))))
(assert (>= (+ (* 38 a) (* 6 b) (* (- 48) b) (div (- 27) c) (* 33 b) (* (- 14) x2) (* 40 c) (* 26 x3)) 42))
(check-sat)